experiment/data/hgs-res/Vrp-Set-A-n36/Vrp-Set-A-n36-hgs/0.hgs1.vrp
NAME : 0
COMMENT : CVRP Instance
TYPE : CVRP
DIMENSION : 36
EDGE_WEIGHT_TYPE : EUC_2D
CAPACITY : 100
NODE_COORD_SECTION
1	15.0	19.0
2	1.0	49.0
3	87.0	25.0
4	69.0	65.0
5	93.0	91.0
6	33.0	31.0
7	71.0	61.0
8	29.0	9.0
9	93.0	7.0
10	55.0	47.0
11	23.0	13.0
12	19.0	47.0
13	57.0	63.0
14	5.0	95.0
15	65.0	43.0
16	69.0	1.0
17	3.0	25.0
18	19.0	91.0
19	21.0	81.0
20	67.0	91.0
21	41.0	23.0
22	19.0	75.0
23	15.0	79.0
24	79.0	47.0
25	19.0	65.0
26	27.0	49.0
27	29.0	17.0
28	25.0	65.0
29	59.0	51.0
30	27.0	95.0
31	21.0	91.0
32	61.0	83.0
33	15.0	83.0
34	31.0	87.0
35	71.0	41.0
36	91.0	21.0
DEMAND_SECTION
1	0
2	1
3	14
4	15
5	11
6	18
7	2
8	22
9	7
10	18
11	23
12	12
13	21
14	2
15	14
16	9
17	10
18	4
19	19
20	2
21	20
22	15
23	11
24	6
25	13
26	19
27	13
28	8
29	15
30	18
31	11
32	21
33	12
34	2
35	23
36	11
DEPOT_SECTION
1
-1
EOF
