experiment/data/hgs-res/Vrp-Set-A-n36/Vrp-Set-A-n36-hgs/0.hgs1.log
=========== Algorithm Parameters =================
---- nbGranular        is set to 20
---- mu                is set to 25
---- lambda            is set to 40
---- nbElite           is set to 4
---- nbClose           is set to 5
---- targetFeasible    is set to 0.2
---- seed              is set to 1234
---- nbIter            is set to 20000
---- timeLimit         is set to 0
---- useSwapStar       is set to 1
==================================================
----- READING INSTANCE: baseline_results/cvrp_hgs/Vrp-Set-A-n36/Vrp-Set-A-n36-hgs/0.hgs1.vrp
----- FLEET SIZE WAS NOT SPECIFIED: DEFAULT INITIALIZATION TO 9 VEHICLES
----- INSTANCE SUCCESSFULLY LOADED WITH 35 CLIENTS AND 9 VEHICLES
----- BUILDING INITIAL POPULATION
----- STARTING GENETIC ALGORITHM
It      0      2 | T(s) 0.04 | Feas 50 802.13 813.71 | Inf 19 811.23 838.53 | Div 0.33 0.39 | Feas 0.81 1.00 | Pen 4.60 0.85
It    500    502 | T(s) 0.17 | Feas 46 802.13 812.48 | Inf 56 799.87 805.22 | Div 0.35 0.22 | Feas 0.15 1.00 | Pen 2.88 0.38
It   1000   1002 | T(s) 0.29 | Feas 55 802.13 811.05 | Inf 53 795.87 800.50 | Div 0.32 0.25 | Feas 0.29 1.00 | Pen 2.08 0.17
It   1500   1502 | T(s) 0.42 | Feas 56 802.13 810.53 | Inf 38 796.29 805.59 | Div 0.31 0.34 | Feas 0.18 1.00 | Pen 2.17 0.10
It   2000   2002 | T(s) 0.54 | Feas 26 802.13 821.75 | Inf 62 796.73 800.64 | Div 0.48 0.23 | Feas 0.32 1.00 | Pen 2.25 0.10
It   2500   2502 | T(s) 0.67 | Feas 64 802.13 810.74 | Inf 58 796.96 801.98 | Div 0.31 0.25 | Feas 0.16 1.00 | Pen 2.30 0.10
It   3000   3002 | T(s) 0.79 | Feas 64 802.13 809.71 | Inf 47 797.19 806.91 | Div 0.29 0.34 | Feas 0.17 1.00 | Pen 2.34 0.10
It   3500   3502 | T(s) 0.92 | Feas 25 802.13 823.94 | Inf 28 797.66 812.97 | Div 0.49 0.44 | Feas 0.37 1.00 | Pen 2.44 0.10
It   4000   4002 | T(s) 1.04 | Feas 41 802.13 815.51 | Inf 45 797.90 804.49 | Div 0.41 0.30 | Feas 0.12 1.00 | Pen 2.49 0.10
It   4500   4502 | T(s) 1.17 | Feas 54 802.13 812.10 | Inf 30 798.41 810.96 | Div 0.34 0.41 | Feas 0.13 1.00 | Pen 2.59 0.10
It   5000   5002 | T(s) 1.29 | Feas 60 802.13 811.76 | Inf 41 796.69 804.84 | Div 0.32 0.36 | Feas 0.21 1.00 | Pen 2.24 0.10
It   5500   5502 | T(s) 1.42 | Feas 25 802.13 823.14 | Inf 37 796.91 805.07 | Div 0.49 0.35 | Feas 0.17 1.00 | Pen 2.29 0.10
It   6000   6002 | T(s) 1.55 | Feas 33 802.13 815.84 | Inf 25 799.75 817.18 | Div 0.42 0.47 | Feas 0.15 1.00 | Pen 2.86 0.10
It   6500   6502 | T(s) 1.67 | Feas 64 802.13 809.32 | Inf 53 796.00 802.95 | Div 0.28 0.30 | Feas 0.32 1.00 | Pen 2.11 0.10
It   7000   7002 | T(s) 1.79 | Feas 59 802.13 810.88 | Inf 33 796.42 808.47 | Div 0.30 0.41 | Feas 0.28 1.00 | Pen 2.19 0.10
It   7500   7502 | T(s) 1.92 | Feas 61 802.13 807.46 | Inf 35 798.61 806.63 | Div 0.18 0.35 | Feas 0.12 1.00 | Pen 2.63 0.10
It   8000   8002 | T(s) 2.04 | Feas 28 802.13 817.07 | Inf 51 796.86 803.86 | Div 0.45 0.30 | Feas 0.34 1.00 | Pen 2.28 0.10
It   8500   8502 | T(s) 2.16 | Feas 44 802.13 814.08 | Inf 61 799.70 806.86 | Div 0.37 0.26 | Feas 0.12 1.00 | Pen 2.85 0.10
It   9000   9002 | T(s) 2.29 | Feas 49 802.13 813.67 | Inf 46 799.98 808.25 | Div 0.35 0.34 | Feas 0.11 1.00 | Pen 2.90 0.10
It   9500   9502 | T(s) 2.41 | Feas 60 802.13 811.16 | Inf 56 798.05 803.47 | Div 0.31 0.26 | Feas 0.25 1.00 | Pen 2.52 0.10
It  10000  10002 | T(s) 2.54 | Feas 52 802.13 812.97 | Inf 31 796.38 808.76 | Div 0.35 0.40 | Feas 0.30 1.00 | Pen 2.18 0.10
It  10500  10502 | T(s) 2.66 | Feas 65 802.13 805.48 | Inf 48 796.82 803.62 | Div 0.16 0.31 | Feas 0.43 1.00 | Pen 2.27 0.10
It  11000  11002 | T(s) 2.79 | Feas 25 802.13 821.86 | Inf 30 797.28 810.18 | Div 0.49 0.43 | Feas 0.30 1.00 | Pen 2.36 0.10
It  11500  11502 | T(s) 2.91 | Feas 25 802.13 822.66 | Inf 47 795.91 802.73 | Div 0.49 0.32 | Feas 0.27 1.00 | Pen 2.09 0.10
It  12000  12002 | T(s) 3.03 | Feas 30 802.13 818.27 | Inf 35 796.33 808.87 | Div 0.44 0.40 | Feas 0.29 1.00 | Pen 2.17 0.10
It  12500  12502 | T(s) 3.16 | Feas 45 802.13 814.02 | Inf 64 798.77 802.31 | Div 0.36 0.21 | Feas 0.11 1.00 | Pen 2.66 0.10
It  13000  13002 | T(s) 3.29 | Feas 41 802.13 815.41 | Inf 56 799.30 806.93 | Div 0.40 0.30 | Feas 0.11 1.00 | Pen 2.77 0.10
It  13500  13502 | T(s) 3.41 | Feas 26 802.13 821.46 | Inf 28 799.86 812.91 | Div 0.49 0.43 | Feas 0.14 1.00 | Pen 2.88 0.10
It  14000  14002 | T(s) 3.53 | Feas 30 802.13 817.05 | Inf 30 796.07 809.91 | Div 0.44 0.42 | Feas 0.33 1.00 | Pen 2.12 0.10
It  14500  14502 | T(s) 3.65 | Feas 59 802.13 810.71 | Inf 53 796.50 802.63 | Div 0.32 0.30 | Feas 0.29 1.00 | Pen 2.21 0.10
It  15000  15002 | T(s) 3.78 | Feas 45 802.13 815.99 | Inf 43 796.72 805.35 | Div 0.37 0.34 | Feas 0.17 1.00 | Pen 2.25 0.10
It  15500  15502 | T(s) 3.90 | Feas 55 802.13 810.96 | Inf 63 797.18 803.41 | Div 0.33 0.27 | Feas 0.29 1.00 | Pen 2.34 0.10
It  16000  16002 | T(s) 4.03 | Feas 63 802.13 809.86 | Inf 47 797.41 804.89 | Div 0.28 0.31 | Feas 0.23 1.00 | Pen 2.39 0.10
It  16500  16502 | T(s) 4.15 | Feas 36 802.13 814.20 | Inf 58 797.90 804.11 | Div 0.41 0.27 | Feas 0.24 1.00 | Pen 2.49 0.10
It  17000  17002 | T(s) 4.28 | Feas 32 802.13 815.20 | Inf 50 798.40 804.93 | Div 0.41 0.29 | Feas 0.15 1.00 | Pen 2.59 0.10
It  17500  17502 | T(s) 4.40 | Feas 47 802.13 808.99 | Inf 29 796.90 810.67 | Div 0.30 0.44 | Feas 0.29 1.00 | Pen 2.29 0.10
It  18000  18002 | T(s) 4.52 | Feas 31 802.13 815.51 | Inf 34 797.36 807.60 | Div 0.42 0.39 | Feas 0.46 1.00 | Pen 2.38 0.10
It  18500  18502 | T(s) 4.65 | Feas 46 802.13 813.32 | Inf 65 800.03 804.97 | Div 0.35 0.24 | Feas 0.12 1.00 | Pen 2.91 0.10
It  19000  19002 | T(s) 4.78 | Feas 36 802.13 813.61 | Inf 33 798.35 810.98 | Div 0.39 0.41 | Feas 0.05 1.00 | Pen 2.58 0.10
It  19500  19502 | T(s) 4.92 | Feas 42 802.13 810.96 | Inf 57 796.63 801.67 | Div 0.35 0.27 | Feas 0.26 1.00 | Pen 2.23 0.10
----- GENETIC ALGORITHM FINISHED AFTER 20000 ITERATIONS. TIME SPENT: 5.04061
----- WRITING BEST SOLUTION IN : baseline_results/cvrp_hgs/Vrp-Set-A-n36/Vrp-Set-A-n36-hgs/0.hgs1.tour
